TCS_Benchmarks/redos_fix/snort1_output_distinct_3109_3108_25_0.smt2
(set-logic QF_S)
(declare-const x String)
(assert (str.in.re x (re.inter  (re.++ (re.* (re.comp  (re.union  (str.to_re "\u{0A}") (re.union  (str.to_re "\u{0D}")  (str.to.re "\u{26}")))) ) (re.* (re.comp  (re.union  (str.to_re "\u{0A}") (re.union  (str.to_re "\u{0D}")  (str.to.re "\u{26}")))) ))  (re.++ (re.* (re.comp  (re.union  (str.to_re "\u{0A}") (re.union  (str.to_re "\u{0D}")  (str.to.re "\u{26}")))) ) (re.++  (re.++  (re.union  (str.to.re "\u{75}")  (str.to.re "\u{55}")) (re.++  (re.union  (str.to.re "\u{6e}")  (str.to.re "\u{4e}")) (re.++  (re.union  (str.to.re "\u{69}")  (str.to.re "\u{49}")) (re.++  (re.union  (str.to.re "\u{6f}")  (str.to.re "\u{4f}"))  (re.union  (str.to.re "\u{6e}")  (str.to.re "\u{4e}")))))) (re.* (re.comp  (re.union  (str.to_re "\u{0A}") (re.union  (str.to_re "\u{0D}")  (str.to.re "\u{26}")))) ))) )))
(check-sat)
(get-model)