TCS_Benchmarks/redos_fix/snort1_output_distinct_3109_3108_25_0.txt
([^\n\r&]*)([^\n\r&]*)
([^\n\r&]*)([uU][nN][iI][oO][nN])([^\n\r&]*)